	fetch	sigmaxx	sigmayy
0	10170	0.000000	0.000000
