	fetch	sigmaxx	sigmayy
0	20170	0.000000	0.000000
