	x	y	sigmaxx	sigmayy	sigmaxy
0	-61250.000000	-123595.960160	0.020408	0.013256	0.000000
1	-56250.000000	-123595.960160	0.020408	0.013256	0.000000
2	-51250.000000	-123595.960160	0.020408	0.013256	0.000000
3	-46250.000000	-123595.960160	0.020408	0.013256	0.000000
4	-41250.000000	-123595.960160	0.020408	0.013256	0.000000
5	-36250.000000	-123595.960160	0.020408	0.013256	0.000000
6	-31250.000000	-123595.960160	0.020408	0.013256	0.000000
7	-26250.000000	-123595.960160	0.020408	0.013256	0.000000
8	-21250.000000	-123595.960160	0.020408	0.013256	0.000000
9	-16250.000000	-123595.960160	0.020408	0.013256	0.000000
10	-11250.000000	-123595.960160	0.020408	0.013256	0.000000
11	-6250.000000	-123595.960160	0.020408	0.013256	0.000000
12	-1250.000000	-123595.960160	0.020408	0.013256	0.000000
13	3750.000000	-123595.960160	0.020408	0.013256	0.000000
14	8750.000000	-123595.960160	0.020408	0.013256	0.000000
15	13750.000000	-123595.960160	0.020408	0.013256	0.000000
16	18750.000000	-123595.960160	0.020408	0.013256	0.000000
17	23750.000000	-123595.960160	0.020408	0.013256	0.000000
18	28750.000000	-123595.960160	0.020408	0.013256	0.000000
19	33750.000000	-123595.960160	0.020408	0.013256	0.000000
20	38750.000000	-123595.960160	0.020408	0.013256	0.000000
21	43750.000000	-123595.960160	0.020408	0.013256	0.000000
22	48750.000000	-123595.960160	0.020408	0.013256	0.000000
23	53750.000000	-123595.960160	0.020408	0.013256	0.000000
24	58750.000000	-123595.960160	0.020408	0.013256	0.000000
25	-61250.000000	-118155.163630	0.020408	0.013256	0.000000
26	-56250.000000	-118155.163630	0.020408	0.013256	0.000000
27	-51250.000000	-118155.163630	0.020408	0.013256	0.000000
28	-46250.000000	-118155.163630	0.020408	0.013256	0.000000
29	-41250.000000	-118155.163630	0.020408	0.013256	0.000000
30	-36250.000000	-118155.163630	0.020408	0.013256	0.000000
31	-31250.000000	-118155.163630	0.020408	0.013256	0.000000
32	-26250.000000	-118155.163630	0.020408	0.013256	0.000000
33	-21250.000000	-118155.163630	0.020408	0.013256	0.000000
34	-16250.000000	-118155.163630	0.020408	0.013256	0.000000
35	-11250.000000	-118155.163630	0.020408	0.013256	0.000000
36	-6250.000000	-118155.163630	0.020408	0.013256	0.000000
37	-1250.000000	-118155.163630	0.020408	0.013256	0.000000
38	3750.000000	-118155.163630	0.020408	0.013256	0.000000
39	8750.000000	-118155.163630	0.020408	0.013256	0.000000
40	13750.000000	-118155.163630	0.020408	0.013256	0.000000
41	18750.000000	-118155.163630	0.020408	0.013256	0.000000
42	23750.000000	-118155.163630	0.020408	0.013256	0.000000
43	28750.000000	-118155.163630	0.020408	0.013256	0.000000
44	33750.000000	-118155.163630	0.020408	0.013256	0.000000
45	38750.000000	-118155.163630	0.020408	0.013256	0.000000
46	43750.000000	-118155.163630	0.020408	0.013256	0.000000
47	48750.000000	-118155.163630	0.020408	0.013256	0.000000
48	53750.000000	-118155.163630	0.020408	0.013256	0.000000
49	58750.000000	-118155.163630	0.020408	0.013256	0.000000
50	-61250.000000	-112753.037640	0.020408	0.013256	0.000000
51	-56250.000000	-112753.037640	0.020408	0.013256	0.000000
52	-51250.000000	-112753.037640	0.020408	0.013256	0.000000
53	-46250.000000	-112753.037640	0.020408	0.013256	0.000000
54	-41250.000000	-112753.037640	0.020408	0.013256	0.000000
55	-36250.000000	-112753.037640	0.020408	0.013256	0.000000
56	-31250.000000	-112753.037640	0.020408	0.013256	0.000000
57	-26250.000000	-112753.037640	0.020408	0.013256	0.000000
58	-21250.000000	-112753.037640	0.020408	0.013256	0.000000
59	-16250.000000	-112753.037640	0.020408	0.013256	0.000000
60	-11250.000000	-112753.037640	0.020408	0.013256	0.000000
61	-6250.000000	-112753.037640	0.020408	0.013256	0.000000
62	-1250.000000	-112753.037640	0.020408	0.013256	0.000000
63	3750.000000	-112753.037640	0.020408	0.013256	0.000000
64	8750.000000	-112753.037640	0.020408	0.013256	0.000000
65	13750.000000	-112753.037640	0.020408	0.013256	0.000000
66	18750.000000	-112753.037640	0.020408	0.013256	0.000000
67	23750.000000	-112753.037640	0.020408	0.013256	0.000000
68	28750.000000	-112753.037640	0.020408	0.013256	0.000000
69	33750.000000	-112753.037640	0.019401	0.013900	0.002241
70	38750.000000	-112753.037640	0.019528	0.013422	0.001754
71	43750.000000	-112753.037640	0.019633	0.013061	0.001207
72	48750.000000	-112753.037640	0.019702	0.012835	0.000615
73	53750.000000	-112753.037640	0.019727	0.012758	0.000000
74	58750.000000	-112753.037640	0.019702	0.012835	-0.000615
75	-61250.000000	-107387.557820	0.019633	0.013061	-0.001207
76	-56250.000000	-107387.557820	0.019528	0.013422	-0.001754
77	-51250.000000	-107387.557820	0.019401	0.013900	-0.002241
78	-46250.000000	-107387.557820	0.020408	0.013256	0.000000
79	-41250.000000	-107387.557820	0.020408	0.013256	0.000000
80	-36250.000000	-107387.557820	0.020408	0.013256	0.000000
81	-31250.000000	-107387.557820	0.020408	0.013256	0.000000
82	-26250.000000	-107387.557820	0.020408	0.013256	0.000000
83	-21250.000000	-107387.557820	0.020408	0.013256	0.000000
84	-16250.000000	-107387.557820	0.020408	0.013256	0.000000
85	-11250.000000	-107387.557820	0.020408	0.013256	0.000000
86	-6250.000000	-107387.557820	0.020408	0.013256	0.000000
87	-1250.000000	-107387.557820	0.020408	0.013256	0.000000
88	3750.000000	-107387.557820	0.020408	0.013256	0.000000
89	8750.000000	-107387.557820	0.020408	0.013256	0.000000
90	13750.000000	-107387.557820	0.020408	0.013256	0.000000
91	18750.000000	-107387.557820	0.020408	0.013256	0.000000
92	23750.000000	-107387.557820	0.020408	0.013256	0.000000
93	28750.000000	-107387.557820	0.020408	0.013256	0.000000
94	33750.000000	-107387.557820	0.020408	0.013256	0.000000
95	38750.000000	-107387.557820	0.020408	0.013256	0.000000
96	43750.000000	-107387.557820	0.020408	0.013256	0.000000
97	48750.000000	-107387.557820	0.020408	0.013256	0.000000
98	53750.000000	-107387.557820	0.020408	0.013256	0.000000
99	58750.000000	-107387.557820	0.020408	0.013256	0.000000
100	-61250.000000	-102056.749150	0.020408	0.013256	0.000000
101	-56250.000000	-102056.749150	0.020408	0.013256	0.000000
102	-51250.000000	-102056.749150	0.020408	0.013256	0.000000
103	-46250.000000	-102056.749150	0.020408	0.013256	0.000000
104	-41250.000000	-102056.749150	0.020408	0.013256	0.000000
105	-36250.000000	-102056.749150	0.020408	0.013256	0.000000
106	-31250.000000	-102056.749150	0.020408	0.013256	0.000000
107	-26250.000000	-102056.749150	0.020408	0.013256	0.000000
108	-21250.000000	-102056.749150	0.020408	0.013256	0.000000
109	-16250.000000	-102056.749150	0.020408	0.013256	0.000000
110	-11250.000000	-102056.749150	0.020408	0.013256	0.000000
111	-6250.000000	-102056.749150	0.020408	0.013256	0.000000
112	-1250.000000	-102056.749150	0.020408	0.013256	0.000000
113	3750.000000	-102056.749150	0.020408	0.013256	0.000000
114	8750.000000	-102056.749150	0.020408	0.013256	0.000000
115	13750.000000	-102056.749150	0.020408	0.013256	0.000000
116	18750.000000	-102056.749150	0.018346	0.014886	0.003092
117	23750.000000	-102056.749150	0.018487	0.014184	0.002760
118	28750.000000	-102056.749150	0.018641	0.013550	0.002346
119	33750.000000	-102056.749150	0.018791	0.013012	0.001851
120	38750.000000	-102056.749150	0.018919	0.012599	0.001282
121	43750.000000	-102056.749150	0.019004	0.012339	0.000656
122	48750.000000	-102056.749150	0.019034	0.012250	0.000000
123	53750.000000	-102056.749150	0.019004	0.012339	-0.000656
124	58750.000000	-102056.749150	0.018919	0.012599	-0.001282
125	-61250.000000	-96758.682859	0.018791	0.013012	-0.001851
126	-56250.000000	-96758.682859	0.018641	0.013550	-0.002346
127	-51250.000000	-96758.682859	0.018487	0.014184	-0.002760
128	-46250.000000	-96758.682859	0.018346	0.014886	-0.003092
129	-41250.000000	-96758.682859	0.020408	0.013256	0.000000
130	-36250.000000	-96758.682859	0.020408	0.013256	0.000000
131	-31250.000000	-96758.682859	0.020408	0.013256	0.000000
132	-26250.000000	-96758.682859	0.020408	0.013256	0.000000
133	-21250.000000	-96758.682859	0.020408	0.013256	0.000000
134	-16250.000000	-96758.682859	0.020408	0.013256	0.000000
135	-11250.000000	-96758.682859	0.020408	0.013256	0.000000
136	-6250.000000	-96758.682859	0.020408	0.013256	0.000000
137	-1250.000000	-96758.682859	0.020408	0.013256	0.000000
138	3750.000000	-96758.682859	0.020408	0.013256	0.000000
139	8750.000000	-96758.682859	0.020408	0.013256	0.000000
140	13750.000000	-96758.682859	0.020408	0.013256	0.000000
141	18750.000000	-96758.682859	0.020408	0.013256	0.000000
142	23750.000000	-96758.682859	0.020408	0.013256	0.000000
143	28750.000000	-96758.682859	0.020408	0.013256	0.000000
144	33750.000000	-96758.682859	0.020408	0.013256	0.000000
145	38750.000000	-96758.682859	0.020408	0.013256	0.000000
146	43750.000000	-96758.682859	0.020408	0.013256	0.000000
147	48750.000000	-96758.682859	0.020408	0.013256	0.000000
148	53750.000000	-96758.682859	0.020408	0.013256	0.000000
149	58750.000000	-96758.682859	0.020408	0.013256	0.000000
150	-61250.000000	-91491.473444	0.020408	0.013256	0.000000
151	-56250.000000	-91491.473444	0.020408	0.013256	0.000000
152	-51250.000000	-91491.473444	0.020408	0.013256	0.000000
153	-46250.000000	-91491.473444	0.020408	0.013256	0.000000
154	-41250.000000	-91491.473444	0.020408	0.013256	0.000000
155	-36250.000000	-91491.473444	0.020408	0.013256	0.000000
156	-31250.000000	-91491.473444	0.020408	0.013256	0.000000
157	-26250.000000	-91491.473444	0.020408	0.013256	0.000000
158	-21250.000000	-91491.473444	0.020408	0.013256	0.000000
159	-16250.000000	-91491.473444	0.020408	0.013256	0.000000
160	-11250.000000	-91491.473444	0.020408	0.013256	0.000000
161	-6250.000000	-91491.473444	0.020408	0.013256	0.000000
162	-1250.000000	-91491.473444	0.020408	0.013256	0.000000
163	3750.000000	-91491.473444	0.017334	0.016325	0.003540
164	8750.000000	-91491.473444	0.017404	0.015508	0.003387
165	13750.000000	-91491.473444	0.017519	0.014704	0.003166
166	18750.000000	-91491.473444	0.017672	0.013935	0.002861
167	23750.000000	-91491.473444	0.017849	0.013227	0.002461
168	28750.000000	-91491.473444	0.018028	0.012615	0.001963
169	33750.000000	-91491.473444	0.018183	0.012139	0.001371
170	38750.000000	-91491.473444	0.018289	0.011835	0.000706
171	43750.000000	-91491.473444	0.018327	0.011730	0.000000
172	48750.000000	-91491.473444	0.018289	0.011835	-0.000706
173	53750.000000	-91491.473444	0.018183	0.012139	-0.001371
174	58750.000000	-91491.473444	0.018028	0.012615	-0.001963
175	-61250.000000	-86253.275831	0.017849	0.013227	-0.002461
176	-56250.000000	-86253.275831	0.017672	0.013935	-0.002861
177	-51250.000000	-86253.275831	0.017519	0.014704	-0.003166
178	-46250.000000	-86253.275831	0.017404	0.015508	-0.003387
179	-41250.000000	-86253.275831	0.017334	0.016325	-0.003540
180	-36250.000000	-86253.275831	0.020408	0.013256	0.000000
181	-31250.000000	-86253.275831	0.020408	0.013256	0.000000
182	-26250.000000	-86253.275831	0.020408	0.013256	0.000000
183	-21250.000000	-86253.275831	0.020408	0.013256	0.000000
184	-16250.000000	-86253.275831	0.020408	0.013256	0.000000
185	-11250.000000	-86253.275831	0.020408	0.013256	0.000000
186	-6250.000000	-86253.275831	0.020408	0.013256	0.000000
187	-1250.000000	-86253.275831	0.020408	0.013256	0.000000
188	3750.000000	-86253.275831	0.020408	0.013256	0.000000
189	8750.000000	-86253.275831	0.020408	0.013256	0.000000
190	13750.000000	-86253.275831	0.020408	0.013256	0.000000
191	18750.000000	-86253.275831	0.020408	0.013256	0.000000
192	23750.000000	-86253.275831	0.020408	0.013256	0.000000
193	28750.000000	-86253.275831	0.020408	0.013256	0.000000
194	33750.000000	-86253.275831	0.020408	0.013256	0.000000
195	38750.000000	-86253.275831	0.020408	0.013256	0.000000
196	43750.000000	-86253.275831	0.020408	0.013256	0.000000
197	48750.000000	-86253.275831	0.020408	0.013256	0.000000
198	53750.000000	-86253.275831	0.020408	0.013256	0.000000
199	58750.000000	-86253.275831	0.020408	0.013256	0.000000
200	-61250.000000	-81042.282636	0.020408	0.013256	0.000000
201	-56250.000000	-81042.282636	0.020408	0.013256	0.000000
202	-51250.000000	-81042.282636	0.020408	0.013256	0.000000
203	-46250.000000	-81042.282636	0.020408	0.013256	0.000000
204	-41250.000000	-81042.282636	0.020408	0.013256	0.000000
205	-36250.000000	-81042.282636	0.020408	0.013256	0.000000
206	-31250.000000	-81042.282636	0.020408	0.013256	0.000000
207	-26250.000000	-81042.282636	0.020408	0.013256	0.000000
208	-21250.000000	-81042.282636	0.020408	0.013256	0.000000
209	-16250.000000	-81042.282636	0.020408	0.013256	0.000000
210	-11250.000000	-81042.282636	0.020408	0.013256	0.000000
211	-6250.000000	-81042.282636	0.016499	0.017148	0.003560
212	-1250.000000	-81042.282636	0.016493	0.016299	0.003507
213	3750.000000	-81042.282636	0.016545	0.015439	0.003401
214	8750.000000	-81042.282636	0.016654	0.014577	0.003225
215	13750.000000	-81042.282636	0.016816	0.013735	0.002959
216	18750.000000	-81042.282636	0.017015	0.012942	0.002585
217	23750.000000	-81042.282636	0.017228	0.012242	0.002090
218	28750.000000	-81042.282636	0.017419	0.011684	0.001477
219	33750.000000	-81042.282636	0.017554	0.011323	0.000767
220	38750.000000	-81042.282636	0.017602	0.011197	0.000000
221	43750.000000	-81042.282636	0.017554	0.011323	-0.000767
222	48750.000000	-81042.282636	0.017419	0.011684	-0.001477
223	53750.000000	-81042.282636	0.017228	0.012242	-0.002090
224	58750.000000	-81042.282636	0.017015	0.012942	-0.002585
225	-61250.000000	-75856.721544	0.016816	0.013735	-0.002959
226	-56250.000000	-75856.721544	0.016654	0.014577	-0.003225
227	-51250.000000	-75856.721544	0.016545	0.015439	-0.003401
228	-46250.000000	-75856.721544	0.016493	0.016299	-0.003507
229	-41250.000000	-75856.721544	0.016499	0.017148	-0.003560
230	-36250.000000	-75856.721544	0.020408	0.013256	0.000000
231	-31250.000000	-75856.721544	0.020408	0.013256	0.000000
232	-26250.000000	-75856.721544	0.020408	0.013256	0.000000
233	-21250.000000	-75856.721544	0.020408	0.013256	0.000000
234	-16250.000000	-75856.721544	0.020408	0.013256	0.000000
235	-11250.000000	-75856.721544	0.020408	0.013256	0.000000
236	-6250.000000	-75856.721544	0.020408	0.013256	0.000000
237	-1250.000000	-75856.721544	0.020408	0.013256	0.000000
238	3750.000000	-75856.721544	0.020408	0.013256	0.000000
239	8750.000000	-75856.721544	0.020408	0.013256	0.000000
240	13750.000000	-75856.721544	0.020408	0.013256	0.000000
241	18750.000000	-75856.721544	0.020408	0.013256	0.000000
242	23750.000000	-75856.721544	0.020408	0.013256	0.000000
243	28750.000000	-75856.721544	0.020408	0.013256	0.000000
244	33750.000000	-75856.721544	0.020408	0.013256	0.000000
245	38750.000000	-75856.721544	0.020408	0.013256	0.000000
246	43750.000000	-75856.721544	0.020408	0.013256	0.000000
247	48750.000000	-75856.721544	0.020408	0.013256	0.000000
248	53750.000000	-75856.721544	0.020408	0.013256	0.000000
249	58750.000000	-75856.721544	0.020408	0.013256	0.000000
250	-61250.000000	-70694.852780	0.020408	0.013256	0.000000
251	-56250.000000	-70694.852780	0.020408	0.013256	0.000000
252	-51250.000000	-70694.852780	0.020408	0.013256	0.000000
253	-46250.000000	-70694.852780	0.020408	0.013256	0.000000
254	-41250.000000	-70694.852780	0.020408	0.013256	0.000000
255	-36250.000000	-70694.852780	0.020408	0.013256	0.000000
256	-31250.000000	-70694.852780	0.020408	0.013256	0.000000
257	-26250.000000	-70694.852780	0.020408	0.013256	0.000000
258	-21250.000000	-70694.852780	0.020408	0.013256	0.000000
259	-16250.000000	-70694.852780	0.020408	0.013256	0.000000
260	-11250.000000	-70694.852780	0.015679	0.017203	0.003432
261	-6250.000000	-70694.852780	0.015634	0.016331	0.003427
262	-1250.000000	-70694.852780	0.015655	0.015434	0.003375
263	3750.000000	-70694.852780	0.015747	0.014518	0.003257
264	8750.000000	-70694.852780	0.015908	0.013601	0.003045
265	13750.000000	-70694.852780	0.016128	0.012712	0.002713
266	18750.000000	-70694.852780	0.016379	0.011903	0.002236
267	23750.000000	-70694.852780	0.016618	0.011241	0.001606
268	28750.000000	-70694.852780	0.016792	0.010802	0.000842
269	33750.000000	-70694.852780	0.016856	0.010647	0.000000
270	38750.000000	-70694.852780	0.016792	0.010802	-0.000842
271	43750.000000	-70694.852780	0.016618	0.011241	-0.001606
272	48750.000000	-70694.852780	0.016379	0.011903	-0.002236
273	53750.000000	-70694.852780	0.016128	0.012712	-0.002713
274	58750.000000	-70694.852780	0.015908	0.013601	-0.003045
275	-61250.000000	-65554.966674	0.015747	0.014518	-0.003257
276	-56250.000000	-65554.966674	0.015655	0.015434	-0.003375
277	-51250.000000	-65554.966674	0.015634	0.016331	-0.003427
278	-46250.000000	-65554.966674	0.015679	0.017203	-0.003432
279	-41250.000000	-65554.966674	0.020408	0.013256	0.000000
280	-36250.000000	-65554.966674	0.020408	0.013256	0.000000
281	-31250.000000	-65554.966674	0.020408	0.013256	0.000000
282	-26250.000000	-65554.966674	0.020408	0.013256	0.000000
283	-21250.000000	-65554.966674	0.020408	0.013256	0.000000
284	-16250.000000	-65554.966674	0.020408	0.013256	0.000000
285	-11250.000000	-65554.966674	0.020408	0.013256	0.000000
286	-6250.000000	-65554.966674	0.020408	0.013256	0.000000
287	-1250.000000	-65554.966674	0.020408	0.013256	0.000000
288	3750.000000	-65554.966674	0.020408	0.013256	0.000000
289	8750.000000	-65554.966674	0.020408	0.013256	0.000000
290	13750.000000	-65554.966674	0.020408	0.013256	0.000000
291	18750.000000	-65554.966674	0.020408	0.013256	0.000000
292	23750.000000	-65554.966674	0.020408	0.013256	0.000000
293	28750.000000	-65554.966674	0.020408	0.013256	0.000000
294	33750.000000	-65554.966674	0.020408	0.013256	0.000000
295	38750.000000	-65554.966674	0.020408	0.013256	0.000000
296	43750.000000	-65554.966674	0.020408	0.013256	0.000000
297	48750.000000	-65554.966674	0.020408	0.013256	0.000000
298	53750.000000	-65554.966674	0.020408	0.013256	0.000000
299	58750.000000	-65554.966674	0.020408	0.013256	0.000000
300	-61250.000000	-60435.381304	0.020408	0.013256	0.000000
301	-56250.000000	-60435.381304	0.020408	0.013256	0.000000
302	-51250.000000	-60435.381304	0.020408	0.013256	0.000000
303	-46250.000000	-60435.381304	0.020408	0.013256	0.000000
304	-41250.000000	-60435.381304	0.020408	0.013256	0.000000
305	-36250.000000	-60435.381304	0.020408	0.013256	0.000000
306	-31250.000000	-60435.381304	0.020408	0.013256	0.000000
307	-26250.000000	-60435.381304	0.020408	0.013256	0.000000
308	-21250.000000	-60435.381304	0.015024	0.018153	0.003173
309	-16250.000000	-60435.381304	0.014864	0.017306	0.003238
310	-11250.000000	-60435.381304	0.014765	0.016424	0.003282
311	-6250.000000	-60435.381304	0.014738	0.015501	0.003290
312	-1250.000000	-60435.381304	0.014793	0.014540	0.003241
313	3750.000000	-60435.381304	0.014939	0.013550	0.003102
314	8750.000000	-60435.381304	0.015170	0.012559	0.002835
315	13750.000000	-60435.381304	0.015463	0.011621	0.002398
316	18750.000000	-60435.381304	0.015764	0.010822	0.001762
317	23750.000000	-60435.381304	0.015996	0.010274	0.000940
318	28750.000000	-60435.381304	0.016084	0.010077	0.000000
319	33750.000000	-60435.381304	0.015996	0.010274	-0.000940
320	38750.000000	-60435.381304	0.015764	0.010822	-0.001762
321	43750.000000	-60435.381304	0.015463	0.011621	-0.002398
322	48750.000000	-60435.381304	0.015170	0.012559	-0.002835
323	53750.000000	-60435.381304	0.014939	0.013550	-0.003102
324	58750.000000	-60435.381304	0.014793	0.014540	-0.003241
325	-61250.000000	-55334.440217	0.014738	0.015501	-0.003290
326	-56250.000000	-55334.440217	0.014765	0.016424	-0.003282
327	-51250.000000	-55334.440217	0.014864	0.017306	-0.003238
328	-46250.000000	-55334.440217	0.015024	0.018153	-0.003173
329	-41250.000000	-55334.440217	0.020408	0.013256	0.000000
330	-36250.000000	-55334.440217	0.020408	0.013256	0.000000
331	-31250.000000	-55334.440217	0.020408	0.013256	0.000000
332	-26250.000000	-55334.440217	0.020408	0.013256	0.000000
333	-21250.000000	-55334.440217	0.020408	0.013256	0.000000
334	-16250.000000	-55334.440217	0.020408	0.013256	0.000000
335	-11250.000000	-55334.440217	0.020408	0.013256	0.000000
336	-6250.000000	-55334.440217	0.020408	0.013256	0.000000
337	-1250.000000	-55334.440217	0.020408	0.013256	0.000000
338	3750.000000	-55334.440217	0.020408	0.013256	0.000000
339	8750.000000	-55334.440217	0.020408	0.013256	0.000000
340	13750.000000	-55334.440217	0.020408	0.013256	0.000000
341	18750.000000	-55334.440217	0.020408	0.013256	0.000000
342	23750.000000	-55334.440217	0.020408	0.013256	0.000000
343	28750.000000	-55334.440217	0.020408	0.013256	0.000000
344	33750.000000	-55334.440217	0.020408	0.013256	0.000000
345	38750.000000	-55334.440217	0.020408	0.013256	0.000000
346	43750.000000	-55334.440217	0.020408	0.013256	0.000000
347	48750.000000	-55334.440217	0.020408	0.013256	0.000000
348	53750.000000	-55334.440217	0.020408	0.013256	0.000000
349	58750.000000	-55334.440217	0.020408	0.013256	0.000000
350	-61250.000000	-50250.510225	0.020408	0.013256	0.000000
351	-56250.000000	-50250.510225	0.020408	0.013256	0.000000
352	-51250.000000	-50250.510225	0.020408	0.013256	0.000000
353	-46250.000000	-50250.510225	0.020408	0.013256	0.000000
354	-41250.000000	-50250.510225	0.020408	0.013256	0.000000
355	-36250.000000	-50250.510225	0.020408	0.013256	0.000000
356	-31250.000000	-50250.510225	0.014569	0.019093	0.002770
357	-26250.000000	-50250.510225	0.014300	0.018290	0.002867
358	-21250.000000	-50250.510225	0.014074	0.017453	0.002963
359	-16250.000000	-50250.510225	0.013905	0.016573	0.003051
360	-11250.000000	-50250.510225	0.013807	0.015643	0.003120
361	-6250.000000	-50250.510225	0.013800	0.014654	0.003148
362	-1250.000000	-50250.510225	0.013902	0.013607	0.003101
363	3750.000000	-50250.510225	0.014124	0.012515	0.002931
364	8750.000000	-50250.510225	0.014454	0.011428	0.002570
365	13750.000000	-50250.510225	0.014835	0.010450	0.001954
366	18750.000000	-50250.510225	0.015153	0.009744	0.001069
367	23750.000000	-50250.510225	0.015279	0.009484	0.000000
368	28750.000000	-50250.510225	0.015153	0.009744	-0.001069
369	33750.000000	-50250.510225	0.014835	0.010450	-0.001954
370	38750.000000	-50250.510225	0.014454	0.011428	-0.002570
371	43750.000000	-50250.510225	0.014124	0.012515	-0.002931
372	48750.000000	-50250.510225	0.013902	0.013607	-0.003101
373	53750.000000	-50250.510225	0.013800	0.014654	-0.003148
374	58750.000000	-50250.510225	0.013807	0.015643	-0.003120
375	-61250.000000	-45181.979250	0.013905	0.016573	-0.003051
376	-56250.000000	-45181.979250	0.014074	0.017453	-0.002963
377	-51250.000000	-45181.979250	0.014300	0.018290	-0.002867
378	-46250.000000	-45181.979250	0.014569	0.019093	-0.002770
379	-41250.000000	-45181.979250	0.020408	0.013256	0.000000
380	-36250.000000	-45181.979250	0.020408	0.013256	0.000000
381	-31250.000000	-45181.979250	0.020408	0.013256	0.000000
382	-26250.000000	-45181.979250	0.020408	0.013256	0.000000
383	-21250.000000	-45181.979250	0.020408	0.013256	0.000000
384	-16250.000000	-45181.979250	0.020408	0.013256	0.000000
385	-11250.000000	-45181.979250	0.020408	0.013256	0.000000
386	-6250.000000	-45181.979250	0.020408	0.013256	0.000000
387	-1250.000000	-45181.979250	0.020408	0.013256	0.000000
388	3750.000000	-45181.979250	0.020408	0.013256	0.000000
389	8750.000000	-45181.979250	0.020408	0.013256	0.000000
390	13750.000000	-45181.979250	0.020408	0.013256	0.000000
391	18750.000000	-45181.979250	0.020408	0.013256	0.000000
392	23750.000000	-45181.979250	0.020408	0.013256	0.000000
393	28750.000000	-45181.979250	0.020408	0.013256	0.000000
394	33750.000000	-45181.979250	0.020408	0.013256	0.000000
395	38750.000000	-45181.979250	0.020408	0.013256	0.000000
396	43750.000000	-45181.979250	0.020408	0.013256	0.000000
397	48750.000000	-45181.979250	0.020408	0.013256	0.000000
398	53750.000000	-45181.979250	0.020408	0.013256	0.000000
399	58750.000000	-45181.979250	0.020408	0.013256	0.000000
400	-61250.000000	-40127.254236	0.020408	0.013256	0.000000
401	-56250.000000	-40127.254236	0.020408	0.013256	0.000000
402	-51250.000000	-40127.254236	0.020408	0.013256	0.000000
403	-46250.000000	-40127.254236	0.020408	0.013256	0.000000
404	-41250.000000	-40127.254236	0.020408	0.013256	0.000000
405	-36250.000000	-40127.254236	0.013970	0.019230	0.002369
406	-31250.000000	-40127.254236	0.013635	0.018446	0.002478
407	-26250.000000	-40127.254236	0.013334	0.017629	0.002594
408	-21250.000000	-40127.254236	0.013079	0.016768	0.002715
409	-16250.000000	-40127.254236	0.012889	0.015852	0.002834
410	-11250.000000	-40127.254236	0.012786	0.014864	0.002937
411	-6250.000000	-40127.254236	0.012803	0.013789	0.002995
412	-1250.000000	-40127.254236	0.012973	0.012619	0.002955
413	3750.000000	-40127.254236	0.013315	0.011380	0.002726
414	8750.000000	-40127.254236	0.013789	0.010172	0.002186
415	13750.000000	-40127.254236	0.014241	0.009229	0.001248
416	18750.000000	-40127.254236	0.014435	0.008861	0.000000
417	23750.000000	-40127.254236	0.014241	0.009229	-0.001248
418	28750.000000	-40127.254236	0.013789	0.010172	-0.002186
419	33750.000000	-40127.254236	0.013315	0.011380	-0.002726
420	38750.000000	-40127.254236	0.012973	0.012619	-0.002955
421	43750.000000	-40127.254236	0.012803	0.013789	-0.002995
422	48750.000000	-40127.254236	0.012786	0.014864	-0.002937
423	53750.000000	-40127.254236	0.012889	0.015852	-0.002834
424	58750.000000	-40127.254236	0.013079	0.016768	-0.002715
425	-61250.000000	-35084.759109	0.013334	0.017629	-0.002594
426	-56250.000000	-35084.759109	0.013635	0.018446	-0.002478
427	-51250.000000	-35084.759109	0.013970	0.019230	-0.002369
428	-46250.000000	-35084.759109	0.020408	0.013256	0.000000
429	-41250.000000	-35084.759109	0.020408	0.013256	0.000000
430	-36250.000000	-35084.759109	0.020408	0.013256	0.000000
431	-31250.000000	-35084.759109	0.020408	0.013256	0.000000
432	-26250.000000	-35084.759109	0.020408	0.013256	0.000000
433	-21250.000000	-35084.759109	0.020408	0.013256	0.000000
434	-16250.000000	-35084.759109	0.020408	0.013256	0.000000
435	-11250.000000	-35084.759109	0.020408	0.013256	0.000000
436	-6250.000000	-35084.759109	0.020408	0.013256	0.000000
437	-1250.000000	-35084.759109	0.020408	0.013256	0.000000
438	3750.000000	-35084.759109	0.020408	0.013256	0.000000
439	8750.000000	-35084.759109	0.020408	0.013256	0.000000
440	13750.000000	-35084.759109	0.020408	0.013256	0.000000
441	18750.000000	-35084.759109	0.020408	0.013256	0.000000
442	23750.000000	-35084.759109	0.020408	0.013256	0.000000
443	28750.000000	-35084.759109	0.020408	0.013256	0.000000
444	33750.000000	-35084.759109	0.020408	0.013256	0.000000
445	38750.000000	-35084.759109	0.020408	0.013256	0.000000
446	43750.000000	-35084.759109	0.020408	0.013256	0.000000
447	48750.000000	-35084.759109	0.020408	0.013256	0.000000
448	53750.000000	-35084.759109	0.020408	0.013256	0.000000
449	58750.000000	-35084.759109	0.020408	0.013256	0.000000
450	-61250.000000	-30052.932780	0.020408	0.013256	0.000000
451	-56250.000000	-30052.932780	0.020408	0.013256	0.000000
452	-51250.000000	-30052.932780	0.020408	0.013256	0.000000
453	-46250.000000	-30052.932780	0.020408	0.013256	0.000000
454	-41250.000000	-30052.932780	0.013457	0.019364	0.001898
455	-36250.000000	-30052.932780	0.013057	0.018604	0.002003
456	-31250.000000	-30052.932780	0.012678	0.017815	0.002122
457	-26250.000000	-30052.932780	0.012330	0.016987	0.002256
458	-21250.000000	-30052.932780	0.012029	0.016107	0.002404
459	-16250.000000	-30052.932780	0.011798	0.015152	0.002563
460	-11250.000000	-30052.932780	0.011676	0.014097	0.002716
461	-6250.000000	-30052.932780	0.011721	0.012907	0.002826
462	-1250.000000	-30052.932780	0.012001	0.011555	0.002798
463	3750.000000	-30052.932780	0.012550	0.010084	0.002443
464	8750.000000	-30052.932780	0.013214	0.008770	0.001511
465	13750.000000	-30052.932780	0.013541	0.008204	0.000000
466	18750.000000	-30052.932780	0.013214	0.008770	-0.001511
467	23750.000000	-30052.932780	0.012550	0.010084	-0.002443
468	28750.000000	-30052.932780	0.012001	0.011555	-0.002798
469	33750.000000	-30052.932780	0.011721	0.012907	-0.002826
470	38750.000000	-30052.932780	0.011676	0.014097	-0.002716
471	43750.000000	-30052.932780	0.011798	0.015152	-0.002563
472	48750.000000	-30052.932780	0.012029	0.016107	-0.002404
473	53750.000000	-30052.932780	0.012330	0.016987	-0.002256
474	58750.000000	-30052.932780	0.012678	0.017815	-0.002122
475	-61250.000000	-25030.227188	0.013057	0.018604	-0.002003
476	-56250.000000	-25030.227188	0.013457	0.019364	-0.001898
477	-51250.000000	-25030.227188	0.020408	0.013256	0.000000
478	-46250.000000	-25030.227188	0.020408	0.013256	0.000000
479	-41250.000000	-25030.227188	0.020408	0.013256	0.000000
480	-36250.000000	-25030.227188	0.020408	0.013256	0.000000
481	-31250.000000	-25030.227188	0.020408	0.013256	0.000000
482	-26250.000000	-25030.227188	0.020408	0.013256	0.000000
483	-21250.000000	-25030.227188	0.020408	0.013256	0.000000
484	-16250.000000	-25030.227188	0.020408	0.013256	0.000000
485	-11250.000000	-25030.227188	0.020408	0.013256	0.000000
486	-6250.000000	-25030.227188	0.020408	0.013256	0.000000
487	-1250.000000	-25030.227188	0.020408	0.013256	0.000000
488	3750.000000	-25030.227188	0.020408	0.013256	0.000000
489	8750.000000	-25030.227188	0.020408	0.013256	0.000000
490	13750.000000	-25030.227188	0.020408	0.013256	0.000000
491	18750.000000	-25030.227188	0.020408	0.013256	0.000000
492	23750.000000	-25030.227188	0.020408	0.013256	0.000000
493	28750.000000	-25030.227188	0.020408	0.013256	0.000000
494	33750.000000	-25030.227188	0.020408	0.013256	0.000000
495	38750.000000	-25030.227188	0.020408	0.013256	0.000000
496	43750.000000	-25030.227188	0.020408	0.013256	0.000000
497	48750.000000	-25030.227188	0.020408	0.013256	0.000000
498	53750.000000	-25030.227188	0.020408	0.013256	0.000000
499	58750.000000	-25030.227188	0.020408	0.013256	0.000000
500	-61250.000000	-20015.105375	0.020408	0.013256	0.000000
501	-56250.000000	-20015.105375	0.020408	0.013256	0.000000
502	-51250.000000	-20015.105375	0.020408	0.013256	0.000000
503	-46250.000000	-20015.105375	0.013056	0.019479	0.001362
504	-41250.000000	-20015.105375	0.012599	0.018744	0.001448
505	-36250.000000	-20015.105375	0.012149	0.017986	0.001549
506	-31250.000000	-20015.105375	0.011711	0.017197	0.001669
507	-26250.000000	-20015.105375	0.011295	0.016365	0.001812
508	-21250.000000	-20015.105375	0.010917	0.015473	0.001983
509	-16250.000000	-20015.105375	0.010610	0.014492	0.002186
510	-11250.000000	-20015.105375	0.010434	0.013372	0.002414
511	-6250.000000	-20015.105375	0.010502	0.012032	0.002619
512	-1250.000000	-20015.105375	0.010988	0.010370	0.002621
513	3750.000000	-20015.105375	0.011947	0.008503	0.001907
514	8750.000000	-20015.105375	0.012586	0.007503	0.000000
515	13750.000000	-20015.105375	0.011947	0.008503	-0.001907
516	18750.000000	-20015.105375	0.010988	0.010370	-0.002621
517	23750.000000	-20015.105375	0.010502	0.012032	-0.002619
518	28750.000000	-20015.105375	0.010434	0.013372	-0.002414
519	33750.000000	-20015.105375	0.010610	0.014492	-0.002186
520	38750.000000	-20015.105375	0.010917	0.015473	-0.001983
521	43750.000000	-20015.105375	0.011295	0.016365	-0.001812
522	48750.000000	-20015.105375	0.011711	0.017197	-0.001669
523	53750.000000	-20015.105375	0.012149	0.017986	-0.001549
524	58750.000000	-20015.105375	0.012599	0.018744	-0.001448
525	-61250.000000	-15006.039596	0.013056	0.019479	-0.001362
526	-56250.000000	-15006.039596	0.020408	0.013256	0.000000
527	-51250.000000	-15006.039596	0.020408	0.013256	0.000000
528	-46250.000000	-15006.039596	0.020408	0.013256	0.000000
529	-41250.000000	-15006.039596	0.020408	0.013256	0.000000
530	-36250.000000	-15006.039596	0.020408	0.013256	0.000000
531	-31250.000000	-15006.039596	0.020408	0.013256	0.000000
532	-26250.000000	-15006.039596	0.020408	0.013256	0.000000
533	-21250.000000	-15006.039596	0.020408	0.013256	0.000000
534	-16250.000000	-15006.039596	0.020408	0.013256	0.000000
535	-11250.000000	-15006.039596	0.020408	0.013256	0.000000
536	-6250.000000	-15006.039596	0.020408	0.013256	0.000000
537	-1250.000000	-15006.039596	0.020408	0.013256	0.000000
538	3750.000000	-15006.039596	0.020408	0.013256	0.000000
539	8750.000000	-15006.039596	0.020408	0.013256	0.000000
540	13750.000000	-15006.039596	0.020408	0.013256	0.000000
541	18750.000000	-15006.039596	0.020408	0.013256	0.000000
542	23750.000000	-15006.039596	0.020408	0.013256	0.000000
543	28750.000000	-15006.039596	0.020408	0.013256	0.000000
544	33750.000000	-15006.039596	0.020408	0.013256	0.000000
545	38750.000000	-15006.039596	0.020408	0.013256	0.000000
546	43750.000000	-15006.039596	0.020408	0.013256	0.000000
547	48750.000000	-15006.039596	0.020408	0.013256	0.000000
548	53750.000000	-15006.039596	0.020408	0.013256	0.000000
549	58750.000000	-15006.039596	0.020408	0.013256	0.000000
550	-61250.000000	-10001.509443	0.020408	0.013256	0.000000
551	-56250.000000	-10001.509443	0.013283	0.020266	0.000730
552	-51250.000000	-10001.509443	0.012788	0.019562	0.000775
553	-46250.000000	-10001.509443	0.012290	0.018845	0.000828
554	-41250.000000	-10001.509443	0.011787	0.018112	0.000892
555	-36250.000000	-10001.509443	0.011279	0.017357	0.000970
556	-31250.000000	-10001.509443	0.010769	0.016573	0.001067
557	-26250.000000	-10001.509443	0.010261	0.015748	0.001193
558	-21250.000000	-10001.509443	0.009768	0.014865	0.001358
559	-16250.000000	-10001.509443	0.009319	0.013892	0.001582
560	-11250.000000	-10001.509443	0.008993	0.012753	0.001895
561	-6250.000000	-10001.509443	0.009017	0.011258	0.002297
562	-1250.000000	-10001.509443	0.010010	0.008933	0.002393
563	3750.000000	-10001.509443	0.011550	0.006746	0.000000
564	8750.000000	-10001.509443	0.010010	0.008933	-0.002393
565	13750.000000	-10001.509443	0.009017	0.011258	-0.002297
566	18750.000000	-10001.509443	0.008993	0.012753	-0.001895
567	23750.000000	-10001.509443	0.009319	0.013892	-0.001582
568	28750.000000	-10001.509443	0.009768	0.014865	-0.001358
569	33750.000000	-10001.509443	0.010261	0.015748	-0.001193
570	38750.000000	-10001.509443	0.010769	0.016573	-0.001067
571	43750.000000	-10001.509443	0.011279	0.017357	-0.000970
572	48750.000000	-10001.509443	0.011787	0.018112	-0.000892
573	53750.000000	-10001.509443	0.012290	0.018845	-0.000828
574	58750.000000	-10001.509443	0.012788	0.019562	-0.000775
575	-61250.000000	-5000.000000	0.013283	0.020266	-0.000730
576	-56250.000000	-5000.000000	0.020408	0.013256	0.000000
577	-51250.000000	-5000.000000	0.020408	0.013256	0.000000
578	-46250.000000	-5000.000000	0.020408	0.013256	0.000000
579	-41250.000000	-5000.000000	0.020408	0.013256	0.000000
580	-36250.000000	-5000.000000	0.020408	0.013256	0.000000
581	-31250.000000	-5000.000000	0.020408	0.013256	0.000000
582	-26250.000000	-5000.000000	0.020408	0.013256	0.000000
583	-21250.000000	-5000.000000	0.020408	0.013256	0.000000
584	-16250.000000	-5000.000000	0.020408	0.013256	0.000000
585	-11250.000000	-5000.000000	0.020408	0.013256	0.000000
586	-6250.000000	-5000.000000	0.020408	0.013256	0.000000
587	-1250.000000	-5000.000000	0.020408	0.013256	0.000000
588	3750.000000	-5000.000000	0.020408	0.013256	0.000000
589	8750.000000	-5000.000000	0.020408	0.013256	0.000000
590	13750.000000	-5000.000000	0.020408	0.013256	0.000000
591	18750.000000	-5000.000000	0.020408	0.013256	0.000000
592	23750.000000	-5000.000000	0.020408	0.013256	0.000000
593	28750.000000	-5000.000000	0.020408	0.013256	0.000000
594	33750.000000	-5000.000000	0.020408	0.013256	0.000000
595	38750.000000	-5000.000000	0.020408	0.013256	0.000000
596	43750.000000	-5000.000000	0.020408	0.013256	0.000000
597	48750.000000	-5000.000000	0.020408	0.013256	0.000000
598	53750.000000	-5000.000000	0.020408	0.013256	0.000000
599	58750.000000	-5000.000000	0.020408	0.013256	0.000000
600	-61250.000000	0.000000	0.013180	0.020296	0.000147
601	-56250.000000	0.000000	0.012670	0.019599	0.000157
602	-51250.000000	0.000000	0.012153	0.018892	0.000168
603	-46250.000000	0.000000	0.011625	0.018171	0.000181
604	-41250.000000	0.000000	0.011084	0.017434	0.000198
605	-36250.000000	0.000000	0.010527	0.016674	0.000219
606	-31250.000000	0.000000	0.009951	0.015888	0.000247
607	-26250.000000	0.000000	0.009353	0.015068	0.000286
608	-21250.000000	0.000000	0.008729	0.014204	0.000343
609	-16250.000000	0.000000	0.008077	0.013283	0.000437
610	-11250.000000	0.000000	0.007408	0.012274	0.000618
611	-6250.000000	0.000000	0.006850	0.011030	0.001115
612	-1250.000000	0.000000	0.010402	0.005915	0.000000
613	3750.000000	0.000000	0.006850	0.011030	-0.001115
614	8750.000000	0.000000	0.007408	0.012274	-0.000618
615	13750.000000	0.000000	0.008077	0.013283	-0.000437
616	18750.000000	0.000000	0.008729	0.014204	-0.000343
617	23750.000000	0.000000	0.009353	0.015068	-0.000286
618	28750.000000	0.000000	0.009951	0.015888	-0.000247
619	33750.000000	0.000000	0.010527	0.016674	-0.000219
620	38750.000000	0.000000	0.011084	0.017434	-0.000198
621	43750.000000	0.000000	0.011625	0.018171	-0.000181
622	48750.000000	0.000000	0.012153	0.018892	-0.000168
623	53750.000000	0.000000	0.012670	0.019599	-0.000157
624	58750.000000	0.000000	0.013180	0.020296	-0.000147
625	-61250.000000	5000.000000	0.020408	0.013256	0.000000
626	-56250.000000	5000.000000	0.020408	0.013256	0.000000
627	-51250.000000	5000.000000	0.020408	0.013256	0.000000
628	-46250.000000	5000.000000	0.020408	0.013256	0.000000
629	-41250.000000	5000.000000	0.020408	0.013256	0.000000
630	-36250.000000	5000.000000	0.020408	0.013256	0.000000
631	-31250.000000	5000.000000	0.020408	0.013256	0.000000
632	-26250.000000	5000.000000	0.020408	0.013256	0.000000
633	-21250.000000	5000.000000	0.020408	0.013256	0.000000
634	-16250.000000	5000.000000	0.020408	0.013256	0.000000
635	-11250.000000	5000.000000	0.020408	0.013256	0.000000
636	-6250.000000	5000.000000	0.020408	0.013256	0.000000
637	-1250.000000	5000.000000	0.020408	0.013256	0.000000
638	3750.000000	5000.000000	0.020408	0.013256	0.000000
639	8750.000000	5000.000000	0.020408	0.013256	0.000000
640	13750.000000	5000.000000	0.020408	0.013256	0.000000
641	18750.000000	5000.000000	0.020408	0.013256	0.000000
642	23750.000000	5000.000000	0.020408	0.013256	0.000000
643	28750.000000	5000.000000	0.020408	0.013256	0.000000
644	33750.000000	5000.000000	0.020408	0.013256	0.000000
645	38750.000000	5000.000000	0.020408	0.013256	0.000000
646	43750.000000	5000.000000	0.020408	0.013256	0.000000
647	48750.000000	5000.000000	0.020408	0.013256	0.000000
648	53750.000000	5000.000000	0.020408	0.013256	0.000000
649	58750.000000	5000.000000	0.013214	0.020286	-0.000441
650	-61250.000000	10001.509443	0.012710	0.019586	-0.000468
651	-56250.000000	10001.509443	0.012199	0.018876	-0.000501
652	-51250.000000	10001.509443	0.011679	0.018151	-0.000541
653	-46250.000000	10001.509443	0.011149	0.017408	-0.000590
654	-41250.000000	10001.509443	0.010609	0.016640	-0.000652
655	-36250.000000	10001.509443	0.010056	0.015840	-0.000733
656	-31250.000000	10001.509443	0.009495	0.014997	-0.000843
657	-26250.000000	10001.509443	0.008935	0.014092	-0.001001
658	-21250.000000	10001.509443	0.008408	0.013085	-0.001246
659	-16250.000000	10001.509443	0.008042	0.011850	-0.001661
660	-11250.000000	10001.509443	0.008475	0.009820	-0.002306
661	-6250.000000	10001.509443	0.010992	0.006341	0.000000
662	-1250.000000	10001.509443	0.008475	0.009820	0.002306
663	3750.000000	10001.509443	0.008042	0.011850	0.001661
664	8750.000000	10001.509443	0.008408	0.013085	0.001246
665	13750.000000	10001.509443	0.008935	0.014092	0.001001
666	18750.000000	10001.509443	0.009495	0.014997	0.000843
667	23750.000000	10001.509443	0.010056	0.015840	0.000733
668	28750.000000	10001.509443	0.010609	0.016640	0.000652
669	33750.000000	10001.509443	0.011149	0.017408	0.000590
670	38750.000000	10001.509443	0.011679	0.018151	0.000541
671	43750.000000	10001.509443	0.012199	0.018876	0.000501
672	48750.000000	10001.509443	0.012710	0.019586	0.000468
673	53750.000000	10001.509443	0.013214	0.020286	0.000441
674	58750.000000	10001.509443	0.020408	0.013256	0.000000
675	-61250.000000	15006.039596	0.020408	0.013256	0.000000
676	-56250.000000	15006.039596	0.020408	0.013256	0.000000
677	-51250.000000	15006.039596	0.020408	0.013256	0.000000
678	-46250.000000	15006.039596	0.020408	0.013256	0.000000
679	-41250.000000	15006.039596	0.020408	0.013256	0.000000
680	-36250.000000	15006.039596	0.020408	0.013256	0.000000
681	-31250.000000	15006.039596	0.020408	0.013256	0.000000
682	-26250.000000	15006.039596	0.020408	0.013256	0.000000
683	-21250.000000	15006.039596	0.020408	0.013256	0.000000
684	-16250.000000	15006.039596	0.020408	0.013256	0.000000
685	-11250.000000	15006.039596	0.020408	0.013256	0.000000
686	-6250.000000	15006.039596	0.020408	0.013256	0.000000
687	-1250.000000	15006.039596	0.020408	0.013256	0.000000
688	3750.000000	15006.039596	0.020408	0.013256	0.000000
689	8750.000000	15006.039596	0.020408	0.013256	0.000000
690	13750.000000	15006.039596	0.020408	0.013256	0.000000
691	18750.000000	15006.039596	0.020408	0.013256	0.000000
692	23750.000000	15006.039596	0.020408	0.013256	0.000000
693	28750.000000	15006.039596	0.020408	0.013256	0.000000
694	33750.000000	15006.039596	0.020408	0.013256	0.000000
695	38750.000000	15006.039596	0.020408	0.013256	0.000000
696	43750.000000	15006.039596	0.020408	0.013256	0.000000
697	48750.000000	15006.039596	0.020408	0.013256	0.000000
698	53750.000000	15006.039596	0.013384	0.020236	-0.001013
699	58750.000000	15006.039596	0.012904	0.019525	-0.001074
700	-61250.000000	20015.105375	0.012424	0.018800	-0.001145
701	-56250.000000	20015.105375	0.011945	0.018056	-0.001230
702	-51250.000000	20015.105375	0.011468	0.017286	-0.001332
703	-46250.000000	20015.105375	0.011000	0.016479	-0.001457
704	-41250.000000	20015.105375	0.010553	0.015622	-0.001613
705	-36250.000000	20015.105375	0.010148	0.014690	-0.001809
706	-31250.000000	20015.105375	0.009835	0.013639	-0.002055
707	-26250.000000	20015.105375	0.009723	0.012378	-0.002346
708	-21250.000000	20015.105375	0.010044	0.010734	-0.002572
709	-16250.000000	20015.105375	0.011115	0.008567	-0.002163
710	-11250.000000	20015.105375	0.012080	0.007132	0.000000
711	-6250.000000	20015.105375	0.011115	0.008567	0.002163
712	-1250.000000	20015.105375	0.010044	0.010734	0.002572
713	3750.000000	20015.105375	0.009723	0.012378	0.002346
714	8750.000000	20015.105375	0.009835	0.013639	0.002055
715	13750.000000	20015.105375	0.010148	0.014690	0.001809
716	18750.000000	20015.105375	0.010553	0.015622	0.001613
717	23750.000000	20015.105375	0.011000	0.016479	0.001457
718	28750.000000	20015.105375	0.011468	0.017286	0.001332
719	33750.000000	20015.105375	0.011945	0.018056	0.001230
720	38750.000000	20015.105375	0.012424	0.018800	0.001145
721	43750.000000	20015.105375	0.012904	0.019525	0.001074
722	48750.000000	20015.105375	0.013384	0.020236	0.001013
723	53750.000000	20015.105375	0.020408	0.013256	0.000000
724	58750.000000	20015.105375	0.020408	0.013256	0.000000
725	-61250.000000	25030.227188	0.020408	0.013256	0.000000
726	-56250.000000	25030.227188	0.020408	0.013256	0.000000
727	-51250.000000	25030.227188	0.020408	0.013256	0.000000
728	-46250.000000	25030.227188	0.020408	0.013256	0.000000
729	-41250.000000	25030.227188	0.020408	0.013256	0.000000
730	-36250.000000	25030.227188	0.020408	0.013256	0.000000
731	-31250.000000	25030.227188	0.020408	0.013256	0.000000
732	-26250.000000	25030.227188	0.020408	0.013256	0.000000
733	-21250.000000	25030.227188	0.020408	0.013256	0.000000
734	-16250.000000	25030.227188	0.020408	0.013256	0.000000
735	-11250.000000	25030.227188	0.020408	0.013256	0.000000
736	-6250.000000	25030.227188	0.020408	0.013256	0.000000
737	-1250.000000	25030.227188	0.020408	0.013256	0.000000
738	3750.000000	25030.227188	0.020408	0.013256	0.000000
739	8750.000000	25030.227188	0.020408	0.013256	0.000000
740	13750.000000	25030.227188	0.020408	0.013256	0.000000
741	18750.000000	25030.227188	0.020408	0.013256	0.000000
742	23750.000000	25030.227188	0.020408	0.013256	0.000000
743	28750.000000	25030.227188	0.020408	0.013256	0.000000
744	33750.000000	25030.227188	0.020408	0.013256	0.000000
745	38750.000000	25030.227188	0.020408	0.013256	0.000000
746	43750.000000	25030.227188	0.020408	0.013256	0.000000
747	48750.000000	25030.227188	0.020408	0.013256	0.000000
748	53750.000000	25030.227188	0.013241	0.019425	-0.001638
749	58750.000000	25030.227188	0.012811	0.018677	-0.001735
750	-61250.000000	30052.932780	0.012395	0.017904	-0.001848
751	-56250.000000	30052.932780	0.012001	0.017096	-0.001978
752	-51250.000000	30052.932780	0.011641	0.016238	-0.002129
753	-46250.000000	30052.932780	0.011337	0.015313	-0.002300
754	-41250.000000	30052.932780	0.011127	0.014289	-0.002487
755	-36250.000000	30052.932780	0.011073	0.013121	-0.002665
756	-31250.000000	30052.932780	0.011271	0.011753	-0.002756
757	-26250.000000	30052.932780	0.011820	0.010165	-0.002557
758	-21250.000000	30052.932780	0.012625	0.008596	-0.001689
759	-16250.000000	30052.932780	0.013072	0.007859	0.000000
760	-11250.000000	30052.932780	0.012625	0.008596	0.001689
761	-6250.000000	30052.932780	0.011820	0.010165	0.002557
762	-1250.000000	30052.932780	0.011271	0.011753	0.002756
763	3750.000000	30052.932780	0.011073	0.013121	0.002665
764	8750.000000	30052.932780	0.011127	0.014289	0.002487
765	13750.000000	30052.932780	0.011337	0.015313	0.002300
766	18750.000000	30052.932780	0.011641	0.016238	0.002129
767	23750.000000	30052.932780	0.012001	0.017096	0.001978
768	28750.000000	30052.932780	0.012395	0.017904	0.001848
769	33750.000000	30052.932780	0.012811	0.018677	0.001735
770	38750.000000	30052.932780	0.013241	0.019425	0.001638
771	43750.000000	30052.932780	0.020408	0.013256	0.000000
772	48750.000000	30052.932780	0.020408	0.013256	0.000000
773	53750.000000	30052.932780	0.020408	0.013256	0.000000
774	58750.000000	30052.932780	0.020408	0.013256	0.000000
775	-61250.000000	35084.759109	0.020408	0.013256	0.000000
776	-56250.000000	35084.759109	0.020408	0.013256	0.000000
777	-51250.000000	35084.759109	0.020408	0.013256	0.000000
778	-46250.000000	35084.759109	0.020408	0.013256	0.000000
779	-41250.000000	35084.759109	0.020408	0.013256	0.000000
780	-36250.000000	35084.759109	0.020408	0.013256	0.000000
781	-31250.000000	35084.759109	0.020408	0.013256	0.000000
782	-26250.000000	35084.759109	0.020408	0.013256	0.000000
783	-21250.000000	35084.759109	0.020408	0.013256	0.000000
784	-16250.000000	35084.759109	0.020408	0.013256	0.000000
785	-11250.000000	35084.759109	0.020408	0.013256	0.000000
786	-6250.000000	35084.759109	0.020408	0.013256	0.000000
787	-1250.000000	35084.759109	0.020408	0.013256	0.000000
788	3750.000000	35084.759109	0.020408	0.013256	0.000000
789	8750.000000	35084.759109	0.020408	0.013256	0.000000
790	13750.000000	35084.759109	0.020408	0.013256	0.000000
791	18750.000000	35084.759109	0.020408	0.013256	0.000000
792	23750.000000	35084.759109	0.020408	0.013256	0.000000
793	28750.000000	35084.759109	0.020408	0.013256	0.000000
794	33750.000000	35084.759109	0.020408	0.013256	0.000000
795	38750.000000	35084.759109	0.020408	0.013256	0.000000
796	43750.000000	35084.759109	0.020408	0.013256	0.000000
797	48750.000000	35084.759109	0.013701	0.019298	-0.002142
798	53750.000000	35084.759109	0.013333	0.018526	-0.002251
799	58750.000000	35084.759109	0.012993	0.017722	-0.002371
800	-61250.000000	40127.254236	0.012692	0.016877	-0.002501
801	-56250.000000	40127.254236	0.012448	0.015975	-0.002639
802	-51250.000000	40127.254236	0.012285	0.015000	-0.002774
803	-46250.000000	40127.254236	0.012239	0.013928	-0.002882
804	-41250.000000	40127.254236	0.012358	0.012739	-0.002917
805	-36250.000000	40127.254236	0.012682	0.011434	-0.002780
806	-31250.000000	40127.254236	0.013200	0.010096	-0.002314
807	-26250.000000	40127.254236	0.013747	0.008987	-0.001366
808	-21250.000000	40127.254236	0.013995	0.008537	0.000000
809	-16250.000000	40127.254236	0.013747	0.008987	0.001366
810	-11250.000000	40127.254236	0.013200	0.010096	0.002314
811	-6250.000000	40127.254236	0.012682	0.011434	0.002780
812	-1250.000000	40127.254236	0.012358	0.012739	0.002917
813	3750.000000	40127.254236	0.012239	0.013928	0.002882
814	8750.000000	40127.254236	0.012285	0.015000	0.002774
815	13750.000000	40127.254236	0.012448	0.015975	0.002639
816	18750.000000	40127.254236	0.012692	0.016877	0.002501
817	23750.000000	40127.254236	0.012993	0.017722	0.002371
818	28750.000000	40127.254236	0.013333	0.018526	0.002251
819	33750.000000	40127.254236	0.013701	0.019298	0.002142
820	38750.000000	40127.254236	0.020408	0.013256	0.000000
821	43750.000000	40127.254236	0.020408	0.013256	0.000000
822	48750.000000	40127.254236	0.020408	0.013256	0.000000
823	53750.000000	40127.254236	0.020408	0.013256	0.000000
824	58750.000000	40127.254236	0.020408	0.013256	0.000000
825	-61250.000000	45181.979250	0.020408	0.013256	0.000000
826	-56250.000000	45181.979250	0.020408	0.013256	0.000000
827	-51250.000000	45181.979250	0.020408	0.013256	0.000000
828	-46250.000000	45181.979250	0.020408	0.013256	0.000000
829	-41250.000000	45181.979250	0.020408	0.013256	0.000000
830	-36250.000000	45181.979250	0.020408	0.013256	0.000000
831	-31250.000000	45181.979250	0.020408	0.013256	0.000000
832	-26250.000000	45181.979250	0.020408	0.013256	0.000000
833	-21250.000000	45181.979250	0.020408	0.013256	0.000000
834	-16250.000000	45181.979250	0.020408	0.013256	0.000000
835	-11250.000000	45181.979250	0.020408	0.013256	0.000000
836	-6250.000000	45181.979250	0.020408	0.013256	0.000000
837	-1250.000000	45181.979250	0.020408	0.013256	0.000000
838	3750.000000	45181.979250	0.020408	0.013256	0.000000
839	8750.000000	45181.979250	0.020408	0.013256	0.000000
840	13750.000000	45181.979250	0.020408	0.013256	0.000000
841	18750.000000	45181.979250	0.020408	0.013256	0.000000
842	23750.000000	45181.979250	0.020408	0.013256	0.000000
843	28750.000000	45181.979250	0.020408	0.013256	0.000000
844	33750.000000	45181.979250	0.020408	0.013256	0.000000
845	38750.000000	45181.979250	0.020408	0.013256	0.000000
846	43750.000000	45181.979250	0.014260	0.019161	-0.002579
847	48750.000000	45181.979250	0.013958	0.018366	-0.002683
848	53750.000000	45181.979250	0.013696	0.017538	-0.002791
849	58750.000000	45181.979250	0.013485	0.016666	-0.002898
850	-61250.000000	50250.510225	0.013344	0.015740	-0.002993
851	-56250.000000	50250.510225	0.013294	0.014748	-0.003060
852	-51250.000000	50250.510225	0.013359	0.013681	-0.003065
853	-46250.000000	50250.510225	0.013563	0.012546	-0.002956
854	-41250.000000	50250.510225	0.013904	0.011382	-0.002653
855	-36250.000000	50250.510225	0.014330	0.010295	-0.002066
856	-31250.000000	50250.510225	0.014708	0.009483	-0.001151
857	-26250.000000	50250.510225	0.014862	0.009176	0.000000
858	-21250.000000	50250.510225	0.014708	0.009483	0.001151
859	-16250.000000	50250.510225	0.014330	0.010295	0.002066
860	-11250.000000	50250.510225	0.013904	0.011382	0.002653
861	-6250.000000	50250.510225	0.013563	0.012546	0.002956
862	-1250.000000	50250.510225	0.013359	0.013681	0.003065
863	3750.000000	50250.510225	0.013294	0.014748	0.003060
864	8750.000000	50250.510225	0.013344	0.015740	0.002993
865	13750.000000	50250.510225	0.013485	0.016666	0.002898
866	18750.000000	50250.510225	0.013696	0.017538	0.002791
867	23750.000000	50250.510225	0.013958	0.018366	0.002683
868	28750.000000	50250.510225	0.014260	0.019161	0.002579
869	33750.000000	50250.510225	0.020408	0.013256	0.000000
870	38750.000000	50250.510225	0.020408	0.013256	0.000000
871	43750.000000	50250.510225	0.020408	0.013256	0.000000
872	48750.000000	50250.510225	0.020408	0.013256	0.000000
873	53750.000000	50250.510225	0.020408	0.013256	0.000000
874	58750.000000	50250.510225	0.020408	0.013256	0.000000
875	-61250.000000	55334.440217	0.020408	0.013256	0.000000
876	-56250.000000	55334.440217	0.020408	0.013256	0.000000
877	-51250.000000	55334.440217	0.020408	0.013256	0.000000
878	-46250.000000	55334.440217	0.020408	0.013256	0.000000
879	-41250.000000	55334.440217	0.020408	0.013256	0.000000
880	-36250.000000	55334.440217	0.020408	0.013256	0.000000
881	-31250.000000	55334.440217	0.020408	0.013256	0.000000
882	-26250.000000	55334.440217	0.020408	0.013256	0.000000
883	-21250.000000	55334.440217	0.020408	0.013256	0.000000
884	-16250.000000	55334.440217	0.020408	0.013256	0.000000
885	-11250.000000	55334.440217	0.020408	0.013256	0.000000
886	-6250.000000	55334.440217	0.020408	0.013256	0.000000
887	-1250.000000	55334.440217	0.020408	0.013256	0.000000
888	3750.000000	55334.440217	0.020408	0.013256	0.000000
889	8750.000000	55334.440217	0.020408	0.013256	0.000000
890	13750.000000	55334.440217	0.020408	0.013256	0.000000
891	18750.000000	55334.440217	0.020408	0.013256	0.000000
892	23750.000000	55334.440217	0.020408	0.013256	0.000000
893	28750.000000	55334.440217	0.020408	0.013256	0.000000
894	33750.000000	55334.440217	0.020408	0.013256	0.000000
895	38750.000000	55334.440217	0.020408	0.013256	0.000000
896	43750.000000	55334.440217	0.014656	0.018218	-0.003030
897	48750.000000	55334.440217	0.014465	0.017375	-0.003112
898	53750.000000	55334.440217	0.014333	0.016492	-0.003179
899	58750.000000	55334.440217	0.014273	0.015563	-0.003217
900	-61250.000000	60435.381304	0.014301	0.014585	-0.003206
901	-56250.000000	60435.381304	0.014429	0.013564	-0.003112
902	-51250.000000	60435.381304	0.014660	0.012521	-0.002889
903	-46250.000000	60435.381304	0.014972	0.011510	-0.002484
904	-41250.000000	60435.381304	0.015311	0.010628	-0.001853
905	-36250.000000	60435.381304	0.015581	0.010009	-0.000999
906	-31250.000000	60435.381304	0.015686	0.009784	0.000000
907	-26250.000000	60435.381304	0.015581	0.010009	0.000999
908	-21250.000000	60435.381304	0.015311	0.010628	0.001853
909	-16250.000000	60435.381304	0.014972	0.011510	0.002484
910	-11250.000000	60435.381304	0.014660	0.012521	0.002889
911	-6250.000000	60435.381304	0.014429	0.013564	0.003112
912	-1250.000000	60435.381304	0.014301	0.014585	0.003206
913	3750.000000	60435.381304	0.014273	0.015563	0.003217
914	8750.000000	60435.381304	0.014333	0.016492	0.003179
915	13750.000000	60435.381304	0.014465	0.017375	0.003112
916	18750.000000	60435.381304	0.014656	0.018218	0.003030
917	23750.000000	60435.381304	0.020408	0.013256	0.000000
918	28750.000000	60435.381304	0.020408	0.013256	0.000000
919	33750.000000	60435.381304	0.020408	0.013256	0.000000
920	38750.000000	60435.381304	0.020408	0.013256	0.000000
921	43750.000000	60435.381304	0.020408	0.013256	0.000000
922	48750.000000	60435.381304	0.020408	0.013256	0.000000
923	53750.000000	60435.381304	0.020408	0.013256	0.000000
924	58750.000000	60435.381304	0.020408	0.013256	0.000000
925	-61250.000000	65554.966674	0.020408	0.013256	0.000000
926	-56250.000000	65554.966674	0.020408	0.013256	0.000000
927	-51250.000000	65554.966674	0.020408	0.013256	0.000000
928	-46250.000000	65554.966674	0.020408	0.013256	0.000000
929	-41250.000000	65554.966674	0.020408	0.013256	0.000000
930	-36250.000000	65554.966674	0.020408	0.013256	0.000000
931	-31250.000000	65554.966674	0.020408	0.013256	0.000000
932	-26250.000000	65554.966674	0.020408	0.013256	0.000000
933	-21250.000000	65554.966674	0.020408	0.013256	0.000000
934	-16250.000000	65554.966674	0.020408	0.013256	0.000000
935	-11250.000000	65554.966674	0.020408	0.013256	0.000000
936	-6250.000000	65554.966674	0.020408	0.013256	0.000000
937	-1250.000000	65554.966674	0.020408	0.013256	0.000000
938	3750.000000	65554.966674	0.020408	0.013256	0.000000
939	8750.000000	65554.966674	0.020408	0.013256	0.000000
940	13750.000000	65554.966674	0.020408	0.013256	0.000000
941	18750.000000	65554.966674	0.020408	0.013256	0.000000
942	23750.000000	65554.966674	0.020408	0.013256	0.000000
943	28750.000000	65554.966674	0.020408	0.013256	0.000000
944	33750.000000	65554.966674	0.020408	0.013256	0.000000
945	38750.000000	65554.966674	0.015400	0.018096	-0.003298
946	43750.000000	65554.966674	0.015270	0.017249	-0.003344
947	48750.000000	65554.966674	0.015200	0.016370	-0.003364
948	53750.000000	65554.966674	0.015199	0.015458	-0.003342
949	58750.000000	65554.966674	0.015276	0.014518	-0.003256
950	-61250.000000	70694.852780	0.015432	0.013564	-0.003079
951	-56250.000000	70694.852780	0.015659	0.012624	-0.002776
952	-51250.000000	70694.852780	0.015931	0.011753	-0.002315
953	-46250.000000	70694.852780	0.016199	0.011027	-0.001680
954	-41250.000000	70694.852780	0.016399	0.010538	-0.000888
955	-36250.000000	70694.852780	0.016474	0.010365	0.000000
956	-31250.000000	70694.852780	0.016399	0.010538	0.000888
957	-26250.000000	70694.852780	0.016199	0.011027	0.001680
958	-21250.000000	70694.852780	0.015931	0.011753	0.002315
959	-16250.000000	70694.852780	0.015659	0.012624	0.002776
960	-11250.000000	70694.852780	0.015432	0.013564	0.003079
961	-6250.000000	70694.852780	0.015276	0.014518	0.003256
962	-1250.000000	70694.852780	0.015199	0.015458	0.003342
963	3750.000000	70694.852780	0.015200	0.016370	0.003364
964	8750.000000	70694.852780	0.015270	0.017249	0.003344
965	13750.000000	70694.852780	0.015400	0.018096	0.003298
966	18750.000000	70694.852780	0.020408	0.013256	0.000000
967	23750.000000	70694.852780	0.020408	0.013256	0.000000
968	28750.000000	70694.852780	0.020408	0.013256	0.000000
969	33750.000000	70694.852780	0.020408	0.013256	0.000000
970	38750.000000	70694.852780	0.020408	0.013256	0.000000
971	43750.000000	70694.852780	0.020408	0.013256	0.000000
972	48750.000000	70694.852780	0.020408	0.013256	0.000000
973	53750.000000	70694.852780	0.020408	0.013256	0.000000
974	58750.000000	70694.852780	0.020408	0.013256	0.000000
975	-61250.000000	75856.721544	0.020408	0.013256	0.000000
976	-56250.000000	75856.721544	0.020408	0.013256	0.000000
977	-51250.000000	75856.721544	0.020408	0.013256	0.000000
978	-46250.000000	75856.721544	0.020408	0.013256	0.000000
979	-41250.000000	75856.721544	0.020408	0.013256	0.000000
980	-36250.000000	75856.721544	0.020408	0.013256	0.000000
981	-31250.000000	75856.721544	0.020408	0.013256	0.000000
982	-26250.000000	75856.721544	0.020408	0.013256	0.000000
983	-21250.000000	75856.721544	0.020408	0.013256	0.000000
984	-16250.000000	75856.721544	0.020408	0.013256	0.000000
985	-11250.000000	75856.721544	0.020408	0.013256	0.000000
986	-6250.000000	75856.721544	0.020408	0.013256	0.000000
987	-1250.000000	75856.721544	0.020408	0.013256	0.000000
988	3750.000000	75856.721544	0.020408	0.013256	0.000000
989	8750.000000	75856.721544	0.020408	0.013256	0.000000
990	13750.000000	75856.721544	0.020408	0.013256	0.000000
991	18750.000000	75856.721544	0.020408	0.013256	0.000000
992	23750.000000	75856.721544	0.020408	0.013256	0.000000
993	28750.000000	75856.721544	0.020408	0.013256	0.000000
994	33750.000000	75856.721544	0.020408	0.013256	0.000000
995	38750.000000	75856.721544	0.016089	0.017169	-0.003503
996	43750.000000	75856.721544	0.016065	0.016308	-0.003474
997	48750.000000	75856.721544	0.016103	0.015428	-0.003394
998	53750.000000	75856.721544	0.016206	0.014539	-0.003245
999	58750.000000	75856.721544	0.016369	0.013659	-0.003005
1000	-61250.000000	81042.282636	0.016579	0.012819	-0.002649
1001	-56250.000000	81042.282636	0.016810	0.012067	-0.002161
1002	-51250.000000	81042.282636	0.017024	0.011461	-0.001538
1003	-46250.000000	81042.282636	0.017177	0.011063	-0.000802
1004	-41250.000000	81042.282636	0.017232	0.010925	0.000000
1005	-36250.000000	81042.282636	0.017177	0.011063	0.000802
1006	-31250.000000	81042.282636	0.017024	0.011461	0.001538
1007	-26250.000000	81042.282636	0.016810	0.012067	0.002161
1008	-21250.000000	81042.282636	0.016579	0.012819	0.002649
1009	-16250.000000	81042.282636	0.016369	0.013659	0.003005
1010	-11250.000000	81042.282636	0.016206	0.014539	0.003245
1011	-6250.000000	81042.282636	0.016103	0.015428	0.003394
1012	-1250.000000	81042.282636	0.016065	0.016308	0.003474
1013	3750.000000	81042.282636	0.016089	0.017169	0.003503
1014	8750.000000	81042.282636	0.020408	0.013256	0.000000
1015	13750.000000	81042.282636	0.020408	0.013256	0.000000
1016	18750.000000	81042.282636	0.020408	0.013256	0.000000
1017	23750.000000	81042.282636	0.020408	0.013256	0.000000
1018	28750.000000	81042.282636	0.020408	0.013256	0.000000
1019	33750.000000	81042.282636	0.020408	0.013256	0.000000
1020	38750.000000	81042.282636	0.020408	0.013256	0.000000
1021	43750.000000	81042.282636	0.020408	0.013256	0.000000
1022	48750.000000	81042.282636	0.020408	0.013256	0.000000
1023	53750.000000	81042.282636	0.020408	0.013256	0.000000
1024	58750.000000	81042.282636	0.020408	0.013256	0.000000
1025	-61250.000000	86253.275831	0.020408	0.013256	0.000000
1026	-56250.000000	86253.275831	0.020408	0.013256	0.000000
1027	-51250.000000	86253.275831	0.020408	0.013256	0.000000
1028	-46250.000000	86253.275831	0.020408	0.013256	0.000000
1029	-41250.000000	86253.275831	0.020408	0.013256	0.000000
1030	-36250.000000	86253.275831	0.020408	0.013256	0.000000
1031	-31250.000000	86253.275831	0.020408	0.013256	0.000000
1032	-26250.000000	86253.275831	0.020408	0.013256	0.000000
1033	-21250.000000	86253.275831	0.020408	0.013256	0.000000
1034	-16250.000000	86253.275831	0.020408	0.013256	0.000000
1035	-11250.000000	86253.275831	0.020408	0.013256	0.000000
1036	-6250.000000	86253.275831	0.020408	0.013256	0.000000
1037	-1250.000000	86253.275831	0.020408	0.013256	0.000000
1038	3750.000000	86253.275831	0.020408	0.013256	0.000000
1039	8750.000000	86253.275831	0.020408	0.013256	0.000000
1040	13750.000000	86253.275831	0.020408	0.013256	0.000000
1041	18750.000000	86253.275831	0.020408	0.013256	0.000000
1042	23750.000000	86253.275831	0.020408	0.013256	0.000000
1043	28750.000000	86253.275831	0.020408	0.013256	0.000000
1044	33750.000000	86253.275831	0.020408	0.013256	0.000000
1045	38750.000000	86253.275831	0.016916	0.016305	-0.003528
1046	43750.000000	86253.275831	0.016978	0.015466	-0.003398
1047	48750.000000	86253.275831	0.017092	0.014633	-0.003198
1048	53750.000000	86253.275831	0.017250	0.013828	-0.002911
1049	58750.000000	86253.275831	0.017438	0.013079	-0.002522
1050	-61250.000000	91491.473444	0.017633	0.012425	-0.002024
1051	-56250.000000	91491.473444	0.017805	0.011911	-0.001422
1052	-51250.000000	91491.473444	0.017924	0.011580	-0.000735
1053	-46250.000000	91491.473444	0.017967	0.011466	0.000000
1054	-41250.000000	91491.473444	0.017924	0.011580	0.000735
1055	-36250.000000	91491.473444	0.017805	0.011911	0.001422
1056	-31250.000000	91491.473444	0.017633	0.012425	0.002024
1057	-26250.000000	91491.473444	0.017438	0.013079	0.002522
1058	-21250.000000	91491.473444	0.017250	0.013828	0.002911
1059	-16250.000000	91491.473444	0.017092	0.014633	0.003198
1060	-11250.000000	91491.473444	0.016978	0.015466	0.003398
1061	-6250.000000	91491.473444	0.016916	0.016305	0.003528
1062	-1250.000000	91491.473444	0.020408	0.013256	0.000000
1063	3750.000000	91491.473444	0.020408	0.013256	0.000000
1064	8750.000000	91491.473444	0.020408	0.013256	0.000000
1065	13750.000000	91491.473444	0.020408	0.013256	0.000000
1066	18750.000000	91491.473444	0.020408	0.013256	0.000000
1067	23750.000000	91491.473444	0.020408	0.013256	0.000000
1068	28750.000000	91491.473444	0.020408	0.013256	0.000000
1069	33750.000000	91491.473444	0.020408	0.013256	0.000000
1070	38750.000000	91491.473444	0.020408	0.013256	0.000000
1071	43750.000000	91491.473444	0.020408	0.013256	0.000000
1072	48750.000000	91491.473444	0.020408	0.013256	0.000000
1073	53750.000000	91491.473444	0.020408	0.013256	0.000000
1074	58750.000000	91491.473444	0.020408	0.013256	0.000000
1075	-61250.000000	96758.682859	0.020408	0.013256	0.000000
1076	-56250.000000	96758.682859	0.020408	0.013256	0.000000
1077	-51250.000000	96758.682859	0.020408	0.013256	0.000000
1078	-46250.000000	96758.682859	0.020408	0.013256	0.000000
1079	-41250.000000	96758.682859	0.020408	0.013256	0.000000
1080	-36250.000000	96758.682859	0.020408	0.013256	0.000000
1081	-31250.000000	96758.682859	0.020408	0.013256	0.000000
1082	-26250.000000	96758.682859	0.020408	0.013256	0.000000
1083	-21250.000000	96758.682859	0.020408	0.013256	0.000000
1084	-16250.000000	96758.682859	0.020408	0.013256	0.000000
1085	-11250.000000	96758.682859	0.020408	0.013256	0.000000
1086	-6250.000000	96758.682859	0.020408	0.013256	0.000000
1087	-1250.000000	96758.682859	0.020408	0.013256	0.000000
1088	3750.000000	96758.682859	0.020408	0.013256	0.000000
1089	8750.000000	96758.682859	0.020408	0.013256	0.000000
1090	13750.000000	96758.682859	0.020408	0.013256	0.000000
1091	18750.000000	96758.682859	0.020408	0.013256	0.000000
1092	23750.000000	96758.682859	0.020408	0.013256	0.000000
1093	28750.000000	96758.682859	0.020408	0.013256	0.000000
1094	33750.000000	96758.682859	0.020408	0.013256	0.000000
1095	38750.000000	96758.682859	0.017821	0.015564	-0.003370
1096	43750.000000	96758.682859	0.017937	0.014789	-0.003130
1097	48750.000000	96758.682859	0.018084	0.014054	-0.002810
1098	53750.000000	96758.682859	0.018249	0.013384	-0.002402
1099	58750.000000	96758.682859	0.018413	0.012811	-0.001905
1100	-61250.000000	102056.749150	0.018554	0.012369	-0.001325
1101	-56250.000000	102056.749150	0.018649	0.012088	-0.000680
1102	-51250.000000	102056.749150	0.018682	0.011992	0.000000
1103	-46250.000000	102056.749150	0.018649	0.012088	0.000680
1104	-41250.000000	102056.749150	0.018554	0.012369	0.001325
1105	-36250.000000	102056.749150	0.018413	0.012811	0.001905
1106	-31250.000000	102056.749150	0.018249	0.013384	0.002402
1107	-26250.000000	102056.749150	0.018084	0.014054	0.002810
1108	-21250.000000	102056.749150	0.017937	0.014789	0.003130
1109	-16250.000000	102056.749150	0.017821	0.015564	0.003370
1110	-11250.000000	102056.749150	0.020408	0.013256	0.000000
1111	-6250.000000	102056.749150	0.020408	0.013256	0.000000
1112	-1250.000000	102056.749150	0.020408	0.013256	0.000000
1113	3750.000000	102056.749150	0.020408	0.013256	0.000000
1114	8750.000000	102056.749150	0.020408	0.013256	0.000000
1115	13750.000000	102056.749150	0.020408	0.013256	0.000000
1116	18750.000000	102056.749150	0.020408	0.013256	0.000000
1117	23750.000000	102056.749150	0.020408	0.013256	0.000000
1118	28750.000000	102056.749150	0.020408	0.013256	0.000000
1119	33750.000000	102056.749150	0.020408	0.013256	0.000000
1120	38750.000000	102056.749150	0.020408	0.013256	0.000000
1121	43750.000000	102056.749150	0.020408	0.013256	0.000000
1122	48750.000000	102056.749150	0.020408	0.013256	0.000000
1123	53750.000000	102056.749150	0.020408	0.013256	0.000000
1124	58750.000000	102056.749150	0.020408	0.013256	0.000000
1125	-61250.000000	107387.557820	0.020408	0.013256	0.000000
1126	-56250.000000	107387.557820	0.020408	0.013256	0.000000
1127	-51250.000000	107387.557820	0.020408	0.013256	0.000000
1128	-46250.000000	107387.557820	0.020408	0.013256	0.000000
1129	-41250.000000	107387.557820	0.020408	0.013256	0.000000
1130	-36250.000000	107387.557820	0.020408	0.013256	0.000000
1131	-31250.000000	107387.557820	0.020408	0.013256	0.000000
1132	-26250.000000	107387.557820	0.020408	0.013256	0.000000
1133	-21250.000000	107387.557820	0.020408	0.013256	0.000000
1134	-16250.000000	107387.557820	0.020408	0.013256	0.000000
1135	-11250.000000	107387.557820	0.020408	0.013256	0.000000
1136	-6250.000000	107387.557820	0.020408	0.013256	0.000000
1137	-1250.000000	107387.557820	0.020408	0.013256	0.000000
1138	3750.000000	107387.557820	0.020408	0.013256	0.000000
1139	8750.000000	107387.557820	0.020408	0.013256	0.000000
1140	13750.000000	107387.557820	0.020408	0.013256	0.000000
1141	18750.000000	107387.557820	0.020408	0.013256	0.000000
1142	23750.000000	107387.557820	0.020408	0.013256	0.000000
1143	28750.000000	107387.557820	0.020408	0.013256	0.000000
1144	33750.000000	107387.557820	0.020408	0.013256	0.000000
1145	38750.000000	107387.557820	0.020408	0.013256	0.000000
1146	43750.000000	107387.557820	0.018880	0.014324	-0.002710
1147	48750.000000	107387.557820	0.019024	0.013722	-0.002292
1148	53750.000000	107387.557820	0.019163	0.013216	-0.001801
1149	58750.000000	107387.557820	0.019278	0.012830	-0.001243
1150	-61250.000000	112753.037640	0.019355	0.012588	-0.000635
1151	-56250.000000	112753.037640	0.019382	0.012505	0.000000
1152	-51250.000000	112753.037640	0.019355	0.012588	0.000635
1153	-46250.000000	112753.037640	0.019278	0.012830	0.001243
1154	-41250.000000	112753.037640	0.019163	0.013216	0.001801
1155	-36250.000000	112753.037640	0.019024	0.013722	0.002292
1156	-31250.000000	112753.037640	0.018880	0.014324	0.002710
1157	-26250.000000	112753.037640	0.020408	0.013256	0.000000
1158	-21250.000000	112753.037640	0.020408	0.013256	0.000000
1159	-16250.000000	112753.037640	0.020408	0.013256	0.000000
1160	-11250.000000	112753.037640	0.020408	0.013256	0.000000
1161	-6250.000000	112753.037640	0.020408	0.013256	0.000000
1162	-1250.000000	112753.037640	0.020408	0.013256	0.000000
1163	3750.000000	112753.037640	0.020408	0.013256	0.000000
1164	8750.000000	112753.037640	0.020408	0.013256	0.000000
1165	13750.000000	112753.037640	0.020408	0.013256	0.000000
1166	18750.000000	112753.037640	0.020408	0.013256	0.000000
1167	23750.000000	112753.037640	0.020408	0.013256	0.000000
1168	28750.000000	112753.037640	0.020408	0.013256	0.000000
1169	33750.000000	112753.037640	0.020408	0.013256	0.000000
1170	38750.000000	112753.037640	0.020408	0.013256	0.000000
1171	43750.000000	112753.037640	0.020408	0.013256	0.000000
1172	48750.000000	112753.037640	0.020408	0.013256	0.000000
1173	53750.000000	112753.037640	0.020408	0.013256	0.000000
1174	58750.000000	112753.037640	0.020408	0.013256	0.000000
1175	-61250.000000	118155.163630	0.020408	0.013256	0.000000
1176	-56250.000000	118155.163630	0.020408	0.013256	0.000000
1177	-51250.000000	118155.163630	0.020408	0.013256	0.000000
1178	-46250.000000	118155.163630	0.020408	0.013256	0.000000
1179	-41250.000000	118155.163630	0.020408	0.013256	0.000000
1180	-36250.000000	118155.163630	0.020408	0.013256	0.000000
1181	-31250.000000	118155.163630	0.020408	0.013256	0.000000
1182	-26250.000000	118155.163630	0.020408	0.013256	0.000000
1183	-21250.000000	118155.163630	0.020408	0.013256	0.000000
1184	-16250.000000	118155.163630	0.020408	0.013256	0.000000
1185	-11250.000000	118155.163630	0.020408	0.013256	0.000000
1186	-6250.000000	118155.163630	0.020408	0.013256	0.000000
1187	-1250.000000	118155.163630	0.020408	0.013256	0.000000
1188	3750.000000	118155.163630	0.020408	0.013256	0.000000
1189	8750.000000	118155.163630	0.020408	0.013256	0.000000
1190	13750.000000	118155.163630	0.020408	0.013256	0.000000
1191	18750.000000	118155.163630	0.020408	0.013256	0.000000
1192	23750.000000	118155.163630	0.020408	0.013256	0.000000
1193	28750.000000	118155.163630	0.020408	0.013256	0.000000
1194	33750.000000	118155.163630	0.020408	0.013256	0.000000
1195	38750.000000	118155.163630	0.020408	0.013256	0.000000
1196	43750.000000	118155.163630	0.020408	0.013256	0.000000
1197	48750.000000	118155.163630	0.019888	0.013632	-0.001710
1198	53750.000000	118155.163630	0.019984	0.013292	-0.001173
1199	58750.000000	118155.163630	0.020047	0.013080	-0.000597
1200	-61250.000000	123595.960160	0.020068	0.013008	0.000000
1201	-56250.000000	123595.960160	0.020047	0.013080	0.000597
1202	-51250.000000	123595.960160	0.019984	0.013292	0.001173
1203	-46250.000000	123595.960160	0.019888	0.013632	0.001710
1204	-41250.000000	123595.960160	0.020408	0.013256	0.000000
1205	-36250.000000	123595.960160	0.020408	0.013256	0.000000
1206	-31250.000000	123595.960160	0.020408	0.013256	0.000000
1207	-26250.000000	123595.960160	0.020408	0.013256	0.000000
1208	-21250.000000	123595.960160	0.020408	0.013256	0.000000
1209	-16250.000000	123595.960160	0.020408	0.013256	0.000000
1210	-11250.000000	123595.960160	0.020408	0.013256	0.000000
1211	-6250.000000	123595.960160	0.020408	0.013256	0.000000
1212	-1250.000000	123595.960160	0.020408	0.013256	0.000000
1213	3750.000000	123595.960160	0.020408	0.013256	0.000000
1214	8750.000000	123595.960160	0.020408	0.013256	0.000000
1215	13750.000000	123595.960160	0.020408	0.013256	0.000000
1216	18750.000000	123595.960160	0.020408	0.013256	0.000000
1217	23750.000000	123595.960160	0.020408	0.013256	0.000000
1218	28750.000000	123595.960160	0.020408	0.013256	0.000000
1219	33750.000000	123595.960160	0.020408	0.013256	0.000000
1220	38750.000000	123595.960160	0.020408	0.013256	0.000000
1221	43750.000000	123595.960160	0.020408	0.013256	0.000000
1222	48750.000000	123595.960160	0.020408	0.013256	0.000000
1223	53750.000000	123595.960160	0.020408	0.013256	0.000000
1224	58750.000000	123595.960160	0.020408	0.013256	0.000000
